p cnf 14 22
-14 -13 4 0
14 -13 -3 0
-14 12 -9 0
-14 11 -4 0
-14 -10 7 0
-14 8 1 0
-14 7 -5 0
-14 -4 3 0
-13 10 9 0
13 9 6 0
-12 10 -6 0
-12 9 -3 0
11 -9 -3 0
-11 6 1 0
-9 -8 4 0
-9 4 1 0
8 7 5 0
-8 7 4 0
-8 -6 3 0
8 6 3 0
-7 5 -4 0
7 -4 1 0
